-99 000 000 000 000 000 -99 000 -99 -99 -99 -99 -99 000 000 000 -99 -99 -99 000 000 -99 -99 -99 -99 -99 000 000 000 -99 -99
-99 -99 000 000 000 000 000 000 -99 -99 -99 -99 -99 000 000 000 -99 -99 -99 000 000 000 -99 -99 -99 -99 -99 000 000 -99 -99
-99 000 000 000 000 000 000 000 000 000 -99 -99 -99 -99 000 000 000 -99 -99 000 000 000 -99 -99 -99 -99 -99 000 -99 -99 -99
000 000 000 000 000 000 000 000 000 000 -99 -99 -99 -99 -99 000 -99 -99 -99 000 000 -99 -99 -99 -99 -99 -99 -99 -99 -99 -99
000 000 000 000 000 000 000 000 000 -99 -99 -99 -99 -99 -99 000 -99 -99 -99 -99 000 000 -99 -99 -99 -99 -99 -99 -99 -99 -99
000 000 000 000 000 000 000 000 000 -99 -99 -99 -99 -99 000 -99 -99 -99 -99 -99 000 000 000 -99 -99 -99 -99 -99 -99 -99 -99
000 000 000 000 000 000 000 000 000 000 000 -99 000 -99 000 000 000 -99 -99 -99 000 000 000 -99 -99 -99 -99 -99 -99 -99 -99
000 000 000 000 000 000 -99 000 000 000 000 -99 000 000 000 000 000 000 -99 -99 000 000 000 000 000 -99 -99 -99 -99 -99 -99
000 000 000 000 000 000 -99 000 000 000 000 000 000 -99 -99 000 000 000 000 -99 000 000 000 -99 000 -99 -99 -99 -99 -99 -99
000 000 000 000 000 000 000 -99 000 000 000 000 000 -99 000 000 000 000 000 -99 000 000 -99 -99 000 000 -99 -99 -99 000 -99
000 000 000 000 000 000 000 000 000 000 000 000 000 000 000 000 -99 000 000 000 -99 000 -99 -99 000 000 -99 -99 -99 000 000
000 000 000 000 000 000 000 000 000 000 000 000 000 000 000 000 -99 000 000 000 -99 000 -99 -99 000 -99 -99 -99 -99 000 000
000 000 000 000 000 000 000 000 000 000 000 000 000 000 -99 000 -99 000 000 000 000 000 -99 -99 000 000 -99 000 000 000 000
000 000 000 000 000 000 000 000 000 -99 000 000 000 000 -99 000 000 000 000 000 000 000 -99 000 000 000 000 000 -99 -99 -99
000 000 000 000 000 000 000 000 000 -99 -99 -99 000 000 000 000 000 000 000 -99 000 000 -99 000 000 000 000 000 000 -99 -99
000 -99 000 -99 000 000 000 000 000 -99 -99 -99 000 000 000 000 000 000 000 -99 -99 000 -99 000 000 000 000 000 -99 -99 -99
000 -99 000 -99 000 000 000 000 000 -99 -99 -99 -99 -99 000 000 000 000 000 -99 -99 -99 000 000 000 000 000 -99 -99 -99 -99
000 000 000 000 000 000 000 000 000 -99 -99 -99 -99 -99 000 000 000 000 000 -99 -99 000 000 -99 -99 -99 -99 -99 -99 000 000
000 000 000 000 -99 -99 -99 000 000 -99 -99 -99 -99 -99 000 000 000 000 000 -99 000 000 000 -99 -99 000 -99 -99 -99 000 000
000 000 000 000 000 -99 000 000 000 -99 -99 -99 -99 000 000 000 000 000 -99 000 000 000 000 -99 -99 -99 -99 -99 -99 -99 -99
000 000 000 000 000 000 -99 000 000 000 -99 -99 -99 000 000 000 000 000 000 000 000 000 000 -99 -99 -99 -99 -99 -99 -99 -99
000 000 000 000 000 000 -99 000 000 000 -99 -99 -99 000 000 000 000 000 000 000 000 000 000 -99 -99 -99 -99 -99 -99 -99 -99
000 000 000 000 000 000 -99 000 000 -99 -99 -99 -99 000 000 000 000 000 000 000 000 000 000 -99 -99 -99 -99 -99 -99 -99 -99
000 000 000 000 000 000 000 000 000 -99 -99 -99 000 000 000 000 000 000 000 000 000 000 000 -99 -99 -99 -99 -99 -99 -99 -99
000 000 000 000 000 000 000 000 000 000 000 -99 000 000 000 000 000 000 000 000 000 000 000 -99 -99 -99 -99 -99 -99 -99 -99
000 000 000 000 000 000 000 000 000 000 000 -99 000 000 000 000 000 000 000 000 000 000 000 -99 -99 -99 -99 -99 -99 -99 000
000 000 000 000 000 000 000 000 000 000 -99 -99 -99 000 -99 -99 000 000 000 000 000 000 000 -99 -99 -99 -99 -99 -99 -99 000
000 000 000 000 000 000 000 000 000 -99 -99 000 000 -99 000 000 000 000 000 000 000 000 000 -99 -99 -99 -99 -99 -99 -99 000
000 000 000 000 000 000 000 000 000 000 -99 000 000 000 000 000 000 000 000 000 000 000 -99 -99 -99 -99 -99 -99 -99 -99 000
000 000 000 -99 000 000 000 000 000 000 -99 -99 000 000 000 000 000 000 000 000 000 000 -99 -99 000 000 -99 -99 -99 -99 000
000 000 000 000 000 000 000 000 000 000 000 -99 000 000 000 000 000 000 000 000 000 000 -99 000 001 000 000 -99 -99 -99 000
000 000 000 000 000 000 000 000 000 -99 -99 -99 000 000 000 000 000 000 000 000 000 000 000 001 001 000 000 -99 -99 -99 000
000 000 000 000 000 000 000 000 000 -99 -99 -99 000 000 000 000 000 000 000 001 001 001 000 001 001 001 000 000 000 000 000
-99 000 000 000 000 000 000 000 000 -99 -99 -99 -99 000 000 000 001 001 001 000 001 001 000 001 001 001 000 000 000 000 000
000 000 000 000 000 000 000 000 000 000 -99 -99 -99 000 000 000 000 001 001 001 001 001 000 002 002 002 000 000 000 000 000
000 000 000 000 000 000 -99 000 000 000 -99 -99 000 000 000 000 000 001 001 000 001 001 000 002 001 003 001 001 000 000 000
000 000 -99 000 000 -99 -99 000 000 000 -99 -99 000 000 000 000 000 000 001 000 001 001 001 001 001 002 001 001 001 001 001
000 -99 -99 -99 -99 -99 000 000 000 -99 -99 -99 -99 -99 000 000 000 000 000 000 001 001 001 001 001 002 002 003 002 001 001
000 -99 000 -99 000 000 -99 000 -99 -99 -99 -99 -99 000 000 000 000 000 000 000 000 001 001 001 001 001 003 002 004 003 003
-99 000 000 000 000 -99 -99 -99 -99 -99 000 000 000 000 000 000 000 000 000 000 000 000 000 001 001 002 001 002 004 005 004
-99 000 000 000 000 -99 -99 -99 -99 -99 000 000 000 000 000 000 000 -99 000 000 000 000 001 000 000 001 002 003 003 007 009
000 000 -99 000 -99 -99 -99 -99 -99 -99 000 000 000 000 000 000 -99 000 000 000 000 000 000 000 001 002 002 003 003 005 007
000 000 -99 -99 -99 000 -99 -99 -99 000 000 000 000 000 000 000 -99 000 000 000 000 000 000 000 000 001 002 003 003 004 007
000 000 -99 -99 -99 000 000 000 -99 000 000 -99 000 -99 000 000 -99 000 000 000 000 000 000 000 000 001 001 002 003 004 006
000 000 -99 -99 000 -99 000 000 -99 -99 000 000 000 000 000 000 000 000 000 000 000 000 000 000 000 004 002 003 003 005 004
000 -99 -99 -99 -99 -99 -99 000 -99 -99 -99 000 000 000 000 -99 000 000 000 000 000 000 000 000 000 002 001 003 004 002 003
000 -99 -99 -99 -99 -99 -99 -99 -99 -99 000 000 000 000 000 -99 -99 000 000 000 000 000 000 000 000 001 001 003 002 002 002
-99 -99 -99 -99 -99 -99 -99 -99 -99 -99 000 000 000 000 000 -99 -99 000 -99 000 000 000 000 000 000 000 001 002 002 002 001
-99 -99 -99 -99 -99 -99 -99 -99 -99 -99 000 000 000 000 -99 -99 -99 000 -99 000 000 -99 000 000 000 001 002 002 002 002 002
-99 -99 -99 -99 -99 -99 -99 -99 -99 -99 000 000 000 000 -99 -99 -99 000 -99 -99 -99 -99 -99 000 000 001 002 002 003 002 002
-99 -99 -99 -99 -99 -99 -99 -99 000 -99 -99 000 000 -99 -99 -99 -99 -99 -99 -99 000 -99 -99 000 000 000 000 001 004 004 003
-99 -99 -99 -99 -99 -99 -99 -99 000 -99 -99 -99 -99 -99 -99 -99 -99 -99 -99 000 000 -99 -99 -99 -99 000 000 001 004 004 004
-99 -99 -99 -99 -99 -99 -99 000 000 000 000 -99 -99 -99 -99 -99 -99 -99 -99 -99 000 -99 -99 -99 000 000 000 002 004 001 002
-99 -99 -99 -99 -99 -99 000 000 000 000 000 -99 -99 -99 -99 -99 -99 000 000 -99 -99 -99 -99 000 000 000 000 002 002 001 002
001 -99 -99 -99 -99 -99 000 000 000 000 000 000 000 -99 -99 -99 -99 000 -99 -99 -99 -99 000 000 000 000 000 000 000 000 001
